(declare-fun c () String)
(declare-fun g () String)
(declare-fun b () String)
(declare-fun f () String)
(declare-fun a () String)
(declare-fun h () String)
(assert (= (str.++ "bd" b b "a") (str.++ a a "h")))
(assert (= (str.++ f "hb" g "hg") (str.++ "c" c h)))
(assert (= (str.++ "c" f "egff") "bd"))

(check-sat)
